clingo version 5.5.0
Reading from murder.lp ...
Solving...
Answer: 1
murder(loc(18,12),14) at(lucas_guterres,loc(4,0),1) at(lucas_guterres,loc(4,0),2) at(lucas_guterres,loc(4,0),3) at(lucas_guterres,loc(4,0),4) at(lucas_guterres,loc(4,0),5) at(anna_xing,loc(5,0),1) at(thief,loc(5,38),10) at(thief,loc(11,32),11) at(thief,loc(17,26),12) at(thief,loc(24,19),13) at(thief,loc(30,13),14) at(thief,loc(36,6),15) at(thief,loc(42,0),16) at(thief,loc(54,2),18) at(thief,loc(57,10),19) at(thief,loc(61,19),20) at(thief,loc(65,27),21) at(thief,loc(69,35),22) at(thief,loc(73,43),23) at(thief,loc(77,51),24) at(thief,loc(81,59),25) at(thief,loc(84,67),26) at(thief,loc(88,75),27) at(thief,loc(92,84),28) at(thief,loc(98,90),29) at(thief,loc(104,97),30) at(thief,loc(110,104),31) at(thief,loc(116,110),32) at(thief,loc(123,117),33) at(thief,loc(129,123),34) at(thief,loc(137,126),35) at(thief,loc(146,129),36) at(thief,loc(155,131),37) at(lucas_guterres,loc(6,-1),6) at(lucas_guterres,loc(9,-1),7) at(lucas_guterres,loc(12,-2),8) at(lucas_guterres,loc(15,-2),9) at(lucas_guterres,loc(18,-2),10) at(lucas_guterres,loc(21,-3),11) at(lucas_guterres,loc(24,-3),12) at(lucas_guterres,loc(27,-4),13) at(lucas_guterres,loc(30,-4),14) at(lucas_guterres,loc(33,-4),15) at(lucas_guterres,loc(36,-5),16) at(lucas_guterres,loc(39,-5),17) at(lucas_guterres,loc(42,-5),18) at(lucas_guterres,loc(45,-6),19) at(lucas_guterres,loc(48,-6),20) at(lucas_guterres,loc(51,-7),21) at(lucas_guterres,loc(54,-7),22) at(lucas_guterres,loc(57,-7),23) at(lucas_guterres,loc(60,-8),24) at(lucas_guterres,loc(63,-8),25) at(lucas_guterres,loc(66,-8),26) at(lucas_guterres,loc(69,-9),27) at(lucas_guterres,loc(72,-9),28) at(lucas_guterres,loc(75,-10),29) at(lucas_guterres,loc(78,-10),30) at(lucas_guterres,loc(81,-10),31) at(lucas_guterres,loc(84,-11),32) at(lucas_guterres,loc(87,-11),33) at(lucas_guterres,loc(90,-11),34) at(lucas_guterres,loc(93,-12),35) at(lucas_guterres,loc(96,-12),36) at(lucas_guterres,loc(99,-13),37) at(anna_xing,loc(8,-1),2) at(anna_xing,loc(11,-1),3) at(anna_xing,loc(14,-1),4) at(anna_xing,loc(17,-2),5) at(anna_xing,loc(20,-2),6) at(anna_xing,loc(23,-3),7) at(anna_xing,loc(26,-3),8) at(anna_xing,loc(29,-3),9) at(anna_xing,loc(32,-4),10) at(anna_xing,loc(35,-4),11) at(anna_xing,loc(38,-4),12) at(anna_xing,loc(41,-5),13) at(anna_xing,loc(44,-5),14) at(anna_xing,loc(47,-6),15) at(anna_xing,loc(50,-6),16) at(anna_xing,loc(53,-6),17) at(anna_xing,loc(56,-7),18) at(anna_xing,loc(59,-7),19) at(anna_xing,loc(61,-7),20) at(anna_xing,loc(64,-8),21) at(anna_xing,loc(67,-8),22) at(anna_xing,loc(70,-9),23) at(anna_xing,loc(73,-9),24) at(anna_xing,loc(76,-9),25) at(anna_xing,loc(79,-10),26) at(anna_xing,loc(82,-10),27) at(anna_xing,loc(85,-10),28) at(anna_xing,loc(88,-11),29) at(anna_xing,loc(91,-11),30) at(anna_xing,loc(94,-12),31) at(anna_xing,loc(97,-12),32) at(anna_xing,loc(100,-12),33) at(anna_xing,loc(103,-13),34) at(anna_xing,loc(106,-13),35) at(anna_xing,loc(109,-13),36) at(anna_xing,loc(112,-14),37) at(thief,loc(-27,112),1) at(thief,loc(-24,103),2) at(thief,loc(-22,95),3) at(thief,loc(-19,86),4) at(thief,loc(-16,78),5) at(thief,loc(-13,69),6) at(thief,loc(-10,61),7) at(thief,loc(-7,52),8) at(thief,loc(-1,45),9) at(thief,loc(50,-6),17) person(lucas_guterres) person(anna_xing) person(thief) stole(mphone(mobile_phone_2),loc(50,-6),17)
Answer: 2
murder(loc(18,12),14) at(lucas_guterres,loc(4,0),1) at(lucas_guterres,loc(4,0),2) at(lucas_guterres,loc(4,0),3) at(lucas_guterres,loc(4,0),4) at(lucas_guterres,loc(4,0),5) at(anna_xing,loc(5,0),1) at(thief,loc(5,38),10) at(thief,loc(11,32),11) at(thief,loc(17,26),12) at(thief,loc(24,19),13) at(thief,loc(30,13),14) at(thief,loc(36,6),15) at(thief,loc(42,0),16) at(thief,loc(54,2),18) at(thief,loc(57,10),19) at(thief,loc(61,19),20) at(thief,loc(65,27),21) at(thief,loc(69,35),22) at(thief,loc(73,43),23) at(thief,loc(77,51),24) at(thief,loc(81,59),25) at(thief,loc(84,67),26) at(thief,loc(88,75),27) at(thief,loc(92,84),28) at(thief,loc(98,90),29) at(thief,loc(104,97),30) at(thief,loc(110,104),31) at(thief,loc(116,110),32) at(thief,loc(123,117),33) at(thief,loc(129,123),34) at(thief,loc(137,126),35) at(thief,loc(146,129),36) at(thief,loc(155,131),37) at(lucas_guterres,loc(6,-1),6) at(lucas_guterres,loc(9,-1),7) at(lucas_guterres,loc(12,-2),8) at(lucas_guterres,loc(15,-2),9) at(lucas_guterres,loc(18,-2),10) at(lucas_guterres,loc(21,-3),11) at(lucas_guterres,loc(24,-3),12) at(lucas_guterres,loc(27,-4),13) at(lucas_guterres,loc(30,-4),14) at(lucas_guterres,loc(33,-4),15) at(lucas_guterres,loc(36,-5),16) at(lucas_guterres,loc(39,-5),17) at(lucas_guterres,loc(42,-5),18) at(lucas_guterres,loc(45,-6),19) at(lucas_guterres,loc(48,-6),20) at(lucas_guterres,loc(51,-7),21) at(lucas_guterres,loc(54,-7),22) at(lucas_guterres,loc(57,-7),23) at(lucas_guterres,loc(60,-8),24) at(lucas_guterres,loc(63,-8),25) at(lucas_guterres,loc(66,-8),26) at(lucas_guterres,loc(69,-9),27) at(lucas_guterres,loc(72,-9),28) at(lucas_guterres,loc(75,-10),29) at(lucas_guterres,loc(78,-10),30) at(lucas_guterres,loc(81,-10),31) at(lucas_guterres,loc(84,-11),32) at(lucas_guterres,loc(87,-11),33) at(lucas_guterres,loc(90,-11),34) at(lucas_guterres,loc(93,-12),35) at(lucas_guterres,loc(96,-12),36) at(lucas_guterres,loc(99,-13),37) at(anna_xing,loc(8,-1),2) at(anna_xing,loc(11,-1),3) at(anna_xing,loc(14,-1),4) at(anna_xing,loc(17,-2),5) at(anna_xing,loc(20,-2),6) at(anna_xing,loc(23,-3),7) at(anna_xing,loc(26,-3),8) at(anna_xing,loc(29,-3),9) at(anna_xing,loc(32,-4),10) at(anna_xing,loc(35,-4),11) at(anna_xing,loc(38,-4),12) at(anna_xing,loc(41,-5),13) at(anna_xing,loc(44,-5),14) at(anna_xing,loc(47,-6),15) at(anna_xing,loc(50,-6),16) at(anna_xing,loc(53,-6),17) at(anna_xing,loc(56,-7),18) at(anna_xing,loc(59,-7),19) at(anna_xing,loc(61,-7),20) at(anna_xing,loc(64,-8),21) at(anna_xing,loc(67,-8),22) at(anna_xing,loc(70,-9),23) at(anna_xing,loc(73,-9),24) at(anna_xing,loc(76,-9),25) at(anna_xing,loc(79,-10),26) at(anna_xing,loc(82,-10),27) at(anna_xing,loc(85,-10),28) at(anna_xing,loc(88,-11),29) at(anna_xing,loc(91,-11),30) at(anna_xing,loc(94,-12),31) at(anna_xing,loc(97,-12),32) at(anna_xing,loc(100,-12),33) at(anna_xing,loc(103,-13),34) at(anna_xing,loc(106,-13),35) at(anna_xing,loc(109,-13),36) at(anna_xing,loc(112,-14),37) at(thief,loc(-27,112),1) at(thief,loc(-24,103),2) at(thief,loc(-22,95),3) at(thief,loc(-19,86),4) at(thief,loc(-16,78),5) at(thief,loc(-13,69),6) at(thief,loc(-10,61),7) at(thief,loc(-7,52),8) at(thief,loc(-1,45),9) at(thief,loc(50,-6),17) person(lucas_guterres) person(anna_xing) person(thief) stole(mphone(mobile_phone_2),loc(50,-6),17) stayAt(anton,loc(8,12),11,34)
SATISFIABLE

Models       : 2
Calls        : 1
Time         : 0.009s (Solving: 0.00s 1st Model: 0.00s Unsat: 0.00s)
CPU Time     : 0.004s
